%int: n; % Número de días
%int: m; % Número de clientes
%array[1..n, 1..m] of int: demand; % Demanda diaria por cliente y día
%array[1..3] of int: costs; % Costos de producción (N, H, T)
%array[1..3] of int: capacities; % Capacidad diaria (N, H, T)
%array[1..m] of int: Ps; % Pago individual por cliente por MW
%float: min_demand_percentage = 0.50; % Porcentaje mínimo de demanda a cubrir
%float: hydro_max_percentage = 0.80; % Porcentaje máximo de capacidad para hidroeléctrica
%int: hydro_max_consecutive_days = 1; % Días consecutivos máximos a ese porcentaje


% Número de días
n = 7;

% Número de clientes
m = 4;

% Demanda diaria por cliente y día (suponiendo una semana y 4 clientes)
array[1..7, 1..4] of int: demand = [| 80,  90, 100, 85 
                                  | 75,  95,  98, 88
                                  | 70, 100,  95, 80
                                  | 72,  92, 105, 82
                                  | 68,  94,  97, 84
                                  | 65,  93,  96, 81
                                  | 67,  91,  99, 83 |];


% Costos de producción (Nuclear, Hidroeléctrica, Térmica)
costs = [500, 400, 600];

% Capacidad diaria (Nuclear, Hidroeléctrica, Térmica)
capacities = [1000, 300, 500];

% Pago individual por cliente por MW (4 clientes)
Ps = [55, 50, 48, 52];

% Porcentaje mínimo de demanda a cubrir
min_demand_percentage = 0.50;

% Porcentaje máximo de capacidad para hidroeléctrica
hydro_max_percentage = 0.80;

% Días consecutivos máximos a ese porcentaje
hydro_max_consecutive_days = 1;


